(set-logic HORN)
(declare-datatypes ((Nat_1 0)) (((Z_4 ) (Z_5 (unS_0 Nat_1)))))
(declare-fun diseqNat_1 (Nat_1 Nat_1) Bool)
(declare-datatypes ((list_0 0)) (((nil_0 ) (cons_0 (head_0 Nat_1) (tail_0 list_0)))))
(declare-fun diseqlist_0 (list_0 list_0) Bool)
(declare-datatypes ((Nat_0 0)) (((Z_0 ) (S_0 (projS_0 Nat_0)))))
(declare-fun take_0 (list_0 Nat_0 list_0) Bool)
(declare-fun drop_0 (list_0 Nat_0 list_0) Bool)
(declare-fun x_6 (Nat_0 Nat_0 Nat_0) Bool)
(assert (forall ((x_53 Nat_1))
	(diseqNat_1 Z_4 (Z_5 x_53))))
(assert (forall ((x_54 Nat_1))
	(diseqNat_1 (Z_5 x_54) Z_4)))
(assert (forall ((x_55 Nat_1) (x_56 Nat_1))
	(=> (diseqNat_1 x_55 x_56) (diseqNat_1 (Z_5 x_55) (Z_5 x_56)))))
(assert (forall ((x_33 Nat_1) (x_34 list_0))
	(diseqlist_0 nil_0 (cons_0 x_33 x_34))))
(assert (forall ((x_35 Nat_1) (x_36 list_0))
	(diseqlist_0 (cons_0 x_35 x_36) nil_0)))
(assert (forall ((x_37 Nat_1) (x_38 list_0) (x_39 Nat_1) (x_40 list_0))
	(=> (diseqNat_1 x_37 x_39) (diseqlist_0 (cons_0 x_37 x_38) (cons_0 x_39 x_40)))))
(assert (forall ((x_37 Nat_1) (x_38 list_0) (x_39 Nat_1) (x_40 list_0))
	(=> (diseqlist_0 x_38 x_40) (diseqlist_0 (cons_0 x_37 x_38) (cons_0 x_39 x_40)))))
(assert (forall ((x_10 list_0) (x_1 Nat_1) (x_2 list_0) (z_1 Nat_0))
	(=> (take_0 x_10 z_1 x_2) (take_0 (cons_0 x_1 x_10) (S_0 z_1) (cons_0 x_1 x_2)))))
(assert (forall ((z_1 Nat_0))
	(take_0 nil_0 (S_0 z_1) nil_0)))
(assert (forall ((y_0 list_0))
	(take_0 nil_0 Z_0 y_0)))
(assert (forall ((x_13 list_0) (x_4 Nat_1) (x_5 list_0) (z_2 Nat_0))
	(=> (drop_0 x_13 z_2 x_5) (drop_0 x_13 (S_0 z_2) (cons_0 x_4 x_5)))))
(assert (forall ((z_2 Nat_0))
	(drop_0 nil_0 (S_0 z_2) nil_0)))
(assert (forall ((x_16 list_0))
	(drop_0 x_16 Z_0 x_16)))
(assert (forall ((x_17 Nat_0) (x_8 Nat_0) (z_3 Nat_0))
	(=> (x_6 x_17 z_3 x_8) (x_6 x_17 (S_0 z_3) (S_0 x_8)))))
(assert (forall ((z_3 Nat_0))
	(x_6 (S_0 z_3) (S_0 z_3) Z_0)))
(assert (forall ((y_2 Nat_0))
	(x_6 Z_0 Z_0 y_2)))
(assert (forall ((x_21 list_0) (x_22 list_0) (x_23 Nat_0) (x_24 list_0) (x_25 list_0) (n_0 Nat_0) (m_0 Nat_0) (xs_0 list_0))
	(=> (and (diseqlist_0 x_22 x_25) (take_0 x_21 m_0 xs_0) (drop_0 x_22 n_0 x_21) (x_6 x_23 m_0 n_0) (drop_0 x_24 n_0 xs_0) (take_0 x_25 x_23 x_24)) false)))
(check-sat)
(get-model)
